(set-logic ALL)
(declare-fun seed0_T_1 () Int)
(declare-fun seed0_T_2 () Bool)
(declare-fun seed0_var_0xINPUT_412885 () String)
(assert (and (or (>= seed0_T_1 (str.len seed0_var_0xINPUT_412885)) (distinct (* seed0_T_1 seed0_T_1) (mod seed0_T_1 seed0_T_1))) (or (= seed0_T_2 (= seed0_T_1 0)) (str.contains (str.++ seed0_var_0xINPUT_412885 "KASnXgJxT6eBUHu1") (str.++ seed0_var_0xINPUT_412885 "wNiS75l19OZMV0rvT3HQ"))) (or seed0_T_2 (=> (= (* seed0_T_1 seed0_T_1) (+ seed0_T_1 (- 887))) (= (- seed0_T_1 (- 872)) (div seed0_T_1 seed0_T_1))))))
(check-sat)
(exit)